NAME : n60w200.002.572.tour
COMMENT : Length = 572
COMMENT : Found by LKH [Keld Helsgaun] Tue May  2 05:47:35 2017
TYPE : TOUR
DIMENSION : 61
TOUR_SECTION
1
34
7
26
28
20
6
29
31
45
9
19
22
57
11
43
16
46
55
15
23
40
4
25
49
56
44
32
47
35
42
13
3
41
24
53
30
8
54
17
10
52
36
33
14
37
50
60
51
27
12
38
2
48
39
21
18
58
59
61
5
-1
EOF
